     Program PWSCF v.5.1.2 starts on  8Jul2015 at 14: 8: 4

     Current dimensions of program PWSCF are:
     Max number of different atomic species (ntypx) = 10
     Max number of k-points (npk) =  40000
     Max angular momentum in pseudopotentials (lmaxx) =  3
               file Mo.pbe-spn-kjpaw_psl.0.2.UPF: wavefunction(s)  4D renormalized
               file S.pbe-n-kjpaw_psl.0.1.UPF: wavefunction(s)  3P renormalized

     bravais-lattice index     =            4
     lattice parameter (alat)  =       6.0300  a.u.
     unit-cell volume          =    1898.8146 (a.u.)^3
     number of atoms/cell      =            3
     number of atomic types    =            2
     number of electrons       =        26.00
     number of Kohn-Sham states=           17
     kinetic-energy cutoff     =      40.0000  Ry
     charge density cutoff     =     450.0000  Ry
     convergence threshold     =      1.0E-10
     mixing beta               =       0.3000
     number of iterations used =            8  plain     mixing
     Exchange-correlation      =  SLA  PW   PBX  PBC ( 1  4  3  4 0 0)
     nstep                     =           50

     celldm(1)=   6.030000  celldm(2)=   0.000000  celldm(3)=  10.000000
     celldm(4)=   0.000000  celldm(5)=   0.000000  celldm(6)=   0.000000

     crystal axes: (cart. coord. in units of alat)
               a(1) = (   1.000000   0.000000   0.000000 )
               a(2) = (  -0.500000   0.866025   0.000000 )
               a(3) = (   0.000000   0.000000  10.000000 )

     reciprocal axes: (cart. coord. in units 2 pi/alat)
               b(1) = (  1.000000  0.577350  0.000000 )
               b(2) = (  0.000000  1.154701  0.000000 )
               b(3) = (  0.000000  0.000000  0.100000 )

     PseudoPot. # 1 for Mo read from file:
     /global/homes/c/chunjing/espresso/pseudo/Mo.pbe-spn-kjpaw_psl.0.2.UPF
     MD5 check sum: 4d55e26c65023fa7f2775461318ed04e
     Pseudo is Projector augmented-wave + core cor, Zval = 14.0
     Generated using "atomic" code by A. Dal Corso  v.5.0.2 svn rev. 9415
     Shape of augmentation charge: PSQ
     Using radial grid of 1229 points,  6 beta functions with:
                l(1) =   0
                l(2) =   0
                l(3) =   1
                l(4) =   1
                l(5) =   2
                l(6) =   2
     Q(r) pseudized with 0 coefficients

     PseudoPot. # 2 for  S read from file:
     /global/homes/c/chunjing/espresso/pseudo/S.pbe-n-kjpaw_psl.0.1.UPF
     MD5 check sum: 4d0aa7498161b95d6b336a838fdb998f
     Pseudo is Projector augmented-wave + core cor, Zval =  6.0
     Generated using "atomic" code by A. Dal Corso  v.5.0.2 svn rev. 9415
     Shape of augmentation charge: PSQ
     Using radial grid of 1151 points,  4 beta functions with:
                l(1) =   0
                l(2) =   0
                l(3) =   1
                l(4) =   1
     Q(r) pseudized with 0 coefficients

     atomic species   valence    mass     pseudopotential
        Mo            14.00     1.00000     Mo( 1.00)
        S              6.00     1.00000      S( 1.00)

     12 Sym. Ops. (no inversion) found

   Cartesian axes

     site n.     atom                  positions (alat units)
         1           Mo  tau(   1) = (   0.0000000   0.0000000   0.0000000  )
         2           S   tau(   2) = (  -0.0000005   0.5773506   9.4366900  )
         3           S   tau(   3) = (  -0.0000005   0.5773506   0.5633100  )

     number of k points=    27  Methfessel-Paxton smearing, width (Ry)=  0.0500
                       cart. coord. in units 2pi/alat
        k(    1) = (   0.0000000   0.0000000   0.0000000), wk =   0.0088889
        k(    2) = (   0.0000000   0.0769800   0.0000000), wk =   0.0533333
        k(    3) = (   0.0000000   0.1539601   0.0000000), wk =   0.0533333
        k(    4) = (   0.0000000   0.2309401   0.0000000), wk =   0.0533333
        k(    5) = (   0.0000000   0.3079201   0.0000000), wk =   0.0533333
        k(    6) = (   0.0000000   0.3849002   0.0000000), wk =   0.0533333
        k(    7) = (   0.0000000   0.4618802   0.0000000), wk =   0.0533333
        k(    8) = (   0.0000000   0.5388603   0.0000000), wk =   0.0533333
        k(    9) = (   0.0666667   0.1154701   0.0000000), wk =   0.0533333
        k(   10) = (   0.0666667   0.1924501   0.0000000), wk =   0.1066667
        k(   11) = (   0.0666667   0.2694301   0.0000000), wk =   0.1066667
        k(   12) = (   0.0666667   0.3464102   0.0000000), wk =   0.1066667
        k(   13) = (   0.0666667   0.4233902   0.0000000), wk =   0.1066667
        k(   14) = (   0.0666667   0.5003702   0.0000000), wk =   0.1066667
        k(   15) = (   0.0666667   0.5773503   0.0000000), wk =   0.0533333
        k(   16) = (   0.1333333   0.2309401   0.0000000), wk =   0.0533333
        k(   17) = (   0.1333333   0.3079201   0.0000000), wk =   0.1066667
        k(   18) = (   0.1333333   0.3849002   0.0000000), wk =   0.1066667
        k(   19) = (   0.1333333   0.4618802   0.0000000), wk =   0.1066667
        k(   20) = (   0.1333333   0.5388603   0.0000000), wk =   0.1066667
        k(   21) = (   0.2000000   0.3464102   0.0000000), wk =   0.0533333
        k(   22) = (   0.2000000   0.4233902   0.0000000), wk =   0.1066667
        k(   23) = (   0.2000000   0.5003702   0.0000000), wk =   0.1066667
        k(   24) = (   0.2000000   0.5773503   0.0000000), wk =   0.0533333
        k(   25) = (   0.2666667   0.4618802   0.0000000), wk =   0.0533333
        k(   26) = (   0.2666667   0.5388603   0.0000000), wk =   0.1066667
        k(   27) = (   0.3333333   0.5773503   0.0000000), wk =   0.0177778

     Largest allocated arrays     est. size (Mb)     dimensions
     Largest temporary arrays     est. size (Mb)     dimensions

     Initial potential from superposition of free atoms
     Check: negative starting charge=   -0.000733

     starting charge   25.99864, renormalised to   26.00000

     negative rho (up, down):  7.331E-04 0.000E+00
     Starting wfc are   21 randomized atomic wfcs
     Checking if some PAW data can be deallocated...

     Self-consistent Calculation

     iteration #  1     ecut=    40.00 Ry     beta=0.30
     Davidson diagonalization with overlap
     ethr =  1.00E-02,  avg # of iterations =  2.5

     negative rho (up, down):  7.020E-04 0.000E+00

     total energy              =    -496.39891606 Ry
     Harris-Foulkes estimate   =    -496.74393777 Ry
     estimated scf accuracy    <       0.75617308 Ry

[...]

     End of self-consistent calculation

          k = 0.0000 0.0000 0.0000 (  7993 PWs)   bands (ev):

   -63.7903 -37.8467 -37.6284 -37.6284 -16.1583 -15.4586  -7.8102  -4.9406
    -4.2461  -4.2461  -3.4273  -3.3155  -3.3155  -0.3367  -0.3367  -0.1581
    -0.1581

[...]

     the Fermi energy is    -2.4561 ev

!    total energy              =    -496.62567533 Ry
     Harris-Foulkes estimate   =    -496.62567533 Ry
     estimated scf accuracy    <          3.0E-11 Ry

     total all-electron energy =     -9694.957062 Ry

     The total energy is the sum of the following terms:

     one-electron contribution =   -2025.31507392 Ry
     hartree contribution      =    1013.68266903 Ry
     xc contribution           =     -42.24433824 Ry
     ewald contribution        =     864.17067338 Ry
     one-center paw contrib.   =    -306.92745425 Ry
     smearing contrib. (-TS)   =       0.00784867 Ry

     convergence has been achieved in  15 iterations

     Forces acting on atoms (Ry/au):

     negative rho (up, down):  7.693E-04 0.000E+00
     atom    1 type  1   force =     0.00000000    0.00000000    0.00000000
     atom    2 type  2   force =     0.00000000    0.00000000    0.12294017
     atom    3 type  2   force =     0.00000000    0.00000000   -0.12294017

     Total force =     0.173864     Total SCF correction =     0.000018

     BFGS Geometry Optimization

     number of scf cycles    =   1
     number of bfgs steps    =   0

     energy   new            =    -496.6256753304 Ry

     new trust radius        =       0.1229401680 bohr
     new conv_thr            =            1.0E-10 Ry

ATOMIC_POSITIONS (crystal)
Mo       0.000000000   0.000000000   0.000000000
S        0.333333000   0.666667000   0.945707809
S        0.333333000   0.666667000   0.054292191

     Writing output data file MoS2_a603.save
     Check: negative starting charge=   -0.000733
     NEW-OLD atomic charge density approx. for the potential
     Check: negative starting charge=   -0.000741

[...]

     energy   old            =    -496.6256753304 Ry
     energy   new            =    -496.6526749977 Ry

     CASE: energy  _new < energy  _old

[...]

     Total force =     0.000543     Total SCF correction =     0.000000

     number of scf cycles    =   5
     number of bfgs steps    =   4

     energy   old            =    -496.6829544997 Ry
     energy   new            =    -496.6831163691 Ry

     CASE: energy  _new < energy  _old

     new trust radius        =       0.0011042246 bohr
     new conv_thr            =            1.0E-12 Ry

ATOMIC_POSITIONS (crystal)
Mo       0.000000000   0.000000000   0.000000000
S        0.333333000   0.666667000   0.950955006
S        0.333333000   0.666667000   0.049044994

     Writing output data file MoS2_a603.save
     Check: negative starting charge=   -0.000761
     NEW-OLD atomic charge density approx. for the potential
     Check: negative starting charge=   -0.000761

[...]

     Self-consistent Calculation

[...]

     Threshold (ethr) on eigenvalues was too large:
     Diagonalizing with lowered threshold

     Davidson diagonalization with overlap
     ethr =  1.01E-09,  avg # of iterations =  2.9

[...]

     total energy              =    -496.68311681 Ry
     Harris-Foulkes estimate   =    -496.68311681 Ry
     estimated scf accuracy    <          1.2E-11 Ry

     iteration #  8     ecut=    40.00 Ry     beta=0.30
     Davidson diagonalization with overlap
     ethr =  1.00E-13,  avg # of iterations =  1.0

     negative rho (up, down):  7.987E-04 0.000E+00

     End of self-consistent calculation

[...]

          k = 0.3333 0.5774 0.0000 (  8220 PWs)   bands (ev):

   -63.6929 -37.9326 -37.8903 -37.7634 -14.7838 -14.6944  -8.1898  -7.3864
    -6.8679  -6.3911  -5.6961  -4.9871  -2.8350  -1.1588   0.2167   0.6729
     1.9964

     the Fermi energy is    -1.2183 ev

!    total energy              =    -496.68311681 Ry
     Harris-Foulkes estimate   =    -496.68311681 Ry
     estimated scf accuracy    <          3.3E-13 Ry

     total all-electron energy =     -9695.014503 Ry

     The total energy is the sum of the following terms:

     one-electron contribution =   -2093.69623019 Ry
     hartree contribution      =    1047.75017506 Ry
     xc contribution           =     -42.55672174 Ry
     ewald contribution        =     898.76192556 Ry
     one-center paw contrib.   =    -306.94988917 Ry
     smearing contrib. (-TS)   =       0.00762367 Ry

     convergence has been achieved in   8 iterations

     Forces acting on atoms (Ry/au):

     negative rho (up, down):  7.987E-04 0.000E+00
     atom    1 type  1   force =     0.00000000    0.00000000    0.00000000
     atom    2 type  2   force =     0.00000000    0.00000000    0.00000586
     atom    3 type  2   force =     0.00000000    0.00000000   -0.00000586

     Total force =     0.000008     Total SCF correction =     0.000001
     SCF correction compared to forces is large: reduce conv_thr to get better values

     bfgs converged in   6 scf cycles and   5 bfgs steps
     (criteria: energy <  1.0E-04, force <  1.0E-03)

     End of BFGS Geometry Optimization

     Final energy   =    -496.6831168053 Ry
Begin final coordinates

ATOMIC_POSITIONS (crystal)
Mo       0.000000000   0.000000000   0.000000000
S        0.333333000   0.666667000   0.950955006
S        0.333333000   0.666667000   0.049044994
End final coordinates

     Writing output data file MoS2_a603.save

     General routines

     Parallel routines

     PAW routines

   This run was terminated on:  14: 9:33   8Jul2015

   JOB DONE.
Application 13843100 resources: utime ~2059s, stime ~38s, Rss ~48020, inblocks ~665908, outblocks ~912802