     Program PWSCF v.5.1.2 starts on  8Jul2015 at 14:12:39

     Current dimensions of program PWSCF are:
     Max number of different atomic species (ntypx) = 10
     Max number of k-points (npk) =  40000
     Max angular momentum in pseudopotentials (lmaxx) =  3
               file Mo.pbe-spn-kjpaw_psl.0.2.UPF: wavefunction(s)  4D renormalized
               file S.pbe-n-kjpaw_psl.0.1.UPF: wavefunction(s)  3P renormalized

     bravais-lattice index     =            4
     lattice parameter (alat)  =       6.0000  a.u.
     unit-cell volume          =    1879.9679 (a.u.)^3
     number of atoms/cell      =            3
     number of atomic types    =            2
     number of electrons       =        26.00
     number of Kohn-Sham states=           17
     kinetic-energy cutoff     =      40.0000  Ry
     charge density cutoff     =     450.0000  Ry
     convergence threshold     =      1.0E-10
     mixing beta               =       0.3000
     number of iterations used =            8  plain     mixing
     Exchange-correlation      =  SLA  PW   PBX  PBC ( 1  4  3  4 0 0)
     nstep                     =           50

     celldm(1)=   6.000000  celldm(2)=   0.000000  celldm(3)=  10.050000
     celldm(4)=   0.000000  celldm(5)=   0.000000  celldm(6)=   0.000000

     crystal axes: (cart. coord. in units of alat)
               a(1) = (   1.000000   0.000000   0.000000 )
               a(2) = (  -0.500000   0.866025   0.000000 )
               a(3) = (   0.000000   0.000000  10.050000 )

     reciprocal axes: (cart. coord. in units 2 pi/alat)
               b(1) = (  1.000000  0.577350  0.000000 )
               b(2) = (  0.000000  1.154701  0.000000 )
               b(3) = (  0.000000  0.000000  0.099502 )

     PseudoPot. # 1 for Mo read from file:
     /global/homes/c/chunjing/espresso/pseudo/Mo.pbe-spn-kjpaw_psl.0.2.UPF
     MD5 check sum: 4d55e26c65023fa7f2775461318ed04e
     Pseudo is Projector augmented-wave + core cor, Zval = 14.0
     Generated using "atomic" code by A. Dal Corso  v.5.0.2 svn rev. 9415
     Shape of augmentation charge: PSQ
     Using radial grid of 1229 points,  6 beta functions with:
                l(1) =   0
                l(2) =   0
                l(3) =   1
                l(4) =   1
                l(5) =   2
                l(6) =   2
     Q(r) pseudized with 0 coefficients

     PseudoPot. # 2 for  S read from file:
     /global/homes/c/chunjing/espresso/pseudo/S.pbe-n-kjpaw_psl.0.1.UPF
     MD5 check sum: 4d0aa7498161b95d6b336a838fdb998f
     Pseudo is Projector augmented-wave + core cor, Zval =  6.0
     Generated using "atomic" code by A. Dal Corso  v.5.0.2 svn rev. 9415
     Shape of augmentation charge: PSQ
     Using radial grid of 1151 points,  4 beta functions with:
                l(1) =   0
                l(2) =   0
                l(3) =   1
                l(4) =   1
     Q(r) pseudized with 0 coefficients

     atomic species   valence    mass     pseudopotential
        Mo            14.00     1.00000     Mo( 1.00)
        S              6.00     1.00000      S( 1.00)

     12 Sym. Ops. (no inversion) found

   Cartesian axes

     site n.     atom                  positions (alat units)
         1           Mo  tau(   1) = (   0.0000000   0.0000000   0.0000000  )
         2           S   tau(   2) = (  -0.0000005   0.5773506   9.5475000  )
         3           S   tau(   3) = (  -0.0000005   0.5773506   0.5025000  )

     number of k points=    27  Methfessel-Paxton smearing, width (Ry)=  0.0500
                       cart. coord. in units 2pi/alat
        k(    1) = (   0.0000000   0.0000000   0.0000000), wk =   0.0088889
        k(    2) = (   0.0000000   0.0769800   0.0000000), wk =   0.0533333
        k(    3) = (   0.0000000   0.1539601   0.0000000), wk =   0.0533333
        k(    4) = (   0.0000000   0.2309401   0.0000000), wk =   0.0533333
        k(    5) = (   0.0000000   0.3079201   0.0000000), wk =   0.0533333
        k(    6) = (   0.0000000   0.3849002   0.0000000), wk =   0.0533333
        k(    7) = (   0.0000000   0.4618802   0.0000000), wk =   0.0533333
        k(    8) = (   0.0000000   0.5388603   0.0000000), wk =   0.0533333
        k(    9) = (   0.0666667   0.1154701   0.0000000), wk =   0.0533333
        k(   10) = (   0.0666667   0.1924501   0.0000000), wk =   0.1066667
        k(   11) = (   0.0666667   0.2694301   0.0000000), wk =   0.1066667
        k(   12) = (   0.0666667   0.3464102   0.0000000), wk =   0.1066667
        k(   13) = (   0.0666667   0.4233902   0.0000000), wk =   0.1066667
        k(   14) = (   0.0666667   0.5003702   0.0000000), wk =   0.1066667
        k(   15) = (   0.0666667   0.5773503   0.0000000), wk =   0.0533333
        k(   16) = (   0.1333333   0.2309401   0.0000000), wk =   0.0533333
        k(   17) = (   0.1333333   0.3079201   0.0000000), wk =   0.1066667
        k(   18) = (   0.1333333   0.3849002   0.0000000), wk =   0.1066667
        k(   19) = (   0.1333333   0.4618802   0.0000000), wk =   0.1066667
        k(   20) = (   0.1333333   0.5388603   0.0000000), wk =   0.1066667
        k(   21) = (   0.2000000   0.3464102   0.0000000), wk =   0.0533333
        k(   22) = (   0.2000000   0.4233902   0.0000000), wk =   0.1066667
        k(   23) = (   0.2000000   0.5003702   0.0000000), wk =   0.1066667
        k(   24) = (   0.2000000   0.5773503   0.0000000), wk =   0.0533333
        k(   25) = (   0.2666667   0.4618802   0.0000000), wk =   0.0533333
        k(   26) = (   0.2666667   0.5388603   0.0000000), wk =   0.1066667
        k(   27) = (   0.3333333   0.5773503   0.0000000), wk =   0.0177778

     Largest allocated arrays     est. size (Mb)     dimensions
     Largest temporary arrays     est. size (Mb)     dimensions

     Initial potential from superposition of free atoms
     Check: negative starting charge=   -0.000752

     starting charge   25.99864, renormalised to   26.00000

     negative rho (up, down):  7.518E-04 0.000E+00
     Starting wfc are   21 randomized atomic wfcs
     Checking if some PAW data can be deallocated...

     Self-consistent Calculation

     iteration #  1     ecut=    40.00 Ry     beta=0.30
     Davidson diagonalization with overlap
     ethr =  1.00E-02,  avg # of iterations =  3.0

     negative rho (up, down):  7.245E-04 0.000E+00

     total energy              =    -496.54524137 Ry
     Harris-Foulkes estimate   =    -496.77826490 Ry
     estimated scf accuracy    <       0.52740211 Ry

[...]

     End of self-consistent calculation

          k = 0.0000 0.0000 0.0000 (  7921 PWs)   bands (ev):

   -63.7044 -37.8234 -37.6070 -37.6070 -16.8088 -15.6116  -8.3475  -5.2185
    -5.2185  -4.6559  -4.1365  -4.1365  -2.9331  -0.0113  -0.0112   0.1392
     0.1392

[...]

     the Fermi energy is    -1.2082 ev

!    total energy              =    -496.68228679 Ry
     Harris-Foulkes estimate   =    -496.68228679 Ry
     estimated scf accuracy    <          2.0E-11 Ry

     total all-electron energy =     -9695.013673 Ry

     The total energy is the sum of the following terms:

     one-electron contribution =   -2104.76367291 Ry
     hartree contribution      =    1053.32636509 Ry
     xc contribution           =     -42.53254759 Ry
     ewald contribution        =     904.22779061 Ry
     one-center paw contrib.   =    -306.94766879 Ry
     smearing contrib. (-TS)   =       0.00744679 Ry

     convergence has been achieved in  14 iterations

     Forces acting on atoms (Ry/au):

     negative rho (up, down):  7.880E-04 0.000E+00
     atom    1 type  1   force =     0.00000000    0.00000000    0.00000000
     atom    2 type  2   force =    -0.00000000   -0.00000000    0.01497756
     atom    3 type  2   force =     0.00000000    0.00000000   -0.01497756

     Total force =     0.021181     Total SCF correction =     0.000007

     BFGS Geometry Optimization

     number of scf cycles    =   1
     number of bfgs steps    =   0

     energy   new            =    -496.6822867896 Ry

     new trust radius        =       0.0149775644 bohr
     new conv_thr            =            1.0E-10 Ry

ATOMIC_POSITIONS (crystal)
Mo       0.000000000   0.000000000   0.000000000
S        0.333333000   0.666667000   0.950248384
S        0.333333000   0.666667000   0.049751616

     Writing output data file MoS2_a600.save
     Check: negative starting charge=   -0.000752
     NEW-OLD atomic charge density approx. for the potential
     Check: negative starting charge=   -0.000753

[...]

     energy   old            =    -496.6822867896 Ry
     energy   new            =    -496.6826609375 Ry

     CASE: energy  _new < energy  _old

[...]

     number of scf cycles    =   3
     number of bfgs steps    =   2

     energy   old            =    -496.6826609375 Ry
     energy   new            =    -496.6828984244 Ry

     CASE: energy  _new < energy  _old

     new trust radius        =       0.0130824440 bohr
     new conv_thr            =            2.4E-12 Ry

ATOMIC_POSITIONS (crystal)
Mo      -0.000000000  -0.000000000   0.000000000
S        0.333333000   0.666667000   0.950738563
S        0.333333000   0.666667000   0.049261437

     Writing output data file MoS2_a600.save
     Check: negative starting charge=   -0.000754
     NEW-OLD atomic charge density approx. for the potential
     Check: negative starting charge=   -0.000755

[...]

     Self-consistent Calculation

[...]

     total energy              =    -496.68295521 Ry
     Harris-Foulkes estimate   =    -496.68295520 Ry
     estimated scf accuracy    <          2.9E-12 Ry

     iteration # 13     ecut=    40.00 Ry     beta=0.30
     Davidson diagonalization with overlap
     ethr =  1.00E-13,  avg # of iterations =  1.0

     negative rho (up, down):  7.926E-04 0.000E+00

     End of self-consistent calculation

[...]

          k = 0.3333 0.5774 0.0000 (  8124 PWs)   bands (ev):

   -63.6462 -37.8911 -37.8478 -37.7266 -14.7257 -14.6660  -8.1920  -7.3865
    -6.8584  -6.3540  -5.6920  -4.9928  -2.7900  -1.0579   0.2164   0.7358
     2.0928

     the Fermi energy is    -1.1710 ev

!    total energy              =    -496.68295520 Ry
     Harris-Foulkes estimate   =    -496.68295521 Ry
     estimated scf accuracy    <          1.2E-13 Ry

     total all-electron energy =     -9695.014341 Ry

     The total energy is the sum of the following terms:

     one-electron contribution =   -2111.76038237 Ry
     hartree contribution      =    1056.81963305 Ry
     xc contribution           =     -42.56904033 Ry
     ewald contribution        =     907.76994367 Ry
     one-center paw contrib.   =    -306.95057132 Ry
     smearing contrib. (-TS)   =       0.00746210 Ry

     convergence has been achieved in  13 iterations

     Forces acting on atoms (Ry/au):

     negative rho (up, down):  7.926E-04 0.000E+00
     atom    1 type  1   force =     0.00000000    0.00000000    0.00000000
     atom    2 type  2   force =     0.00000000    0.00000000   -0.00008471
     atom    3 type  2   force =     0.00000000   -0.00000000    0.00008471

     Total force =     0.000120     Total SCF correction =     0.000001

     bfgs converged in   4 scf cycles and   3 bfgs steps
     (criteria: energy <  1.0E-04, force <  1.0E-03)

     End of BFGS Geometry Optimization

     Final energy   =    -496.6829552049 Ry
Begin final coordinates

ATOMIC_POSITIONS (crystal)
Mo      -0.000000000  -0.000000000   0.000000000
S        0.333333000   0.666667000   0.950738563
S        0.333333000   0.666667000   0.049261437
End final coordinates

     Writing output data file MoS2_a600.save

     General routines

     Parallel routines

     PAW routines

   This run was terminated on:  14:13:40   8Jul2015

   JOB DONE.
Application 13843252 resources: utime ~1377s, stime ~27s, Rss ~47724, inblocks ~559362, outblocks ~812742